unknown
(model
; cardinality of BoundSet is 1
(declare-sort BoundSet 0)
; rep: @uc_BoundSet_0
(declare-sort UnboundSet 0)
(define-fun IsAveraging ((BOUND_VARIABLE_385 BoundSet)) Bool true)
(define-fun IsSuperior ((BOUND_VARIABLE_397 BoundSet) (BOUND_VARIABLE_398 BoundSet)) Bool false)
)
unsat
(error "Cannot get the current model unless immediately preceded by SAT/INVALID or UNKNOWN response.")
